interdiction/MCDM/NO_CORR/GEN_FROM_60/20_ITEMS_1000_GEN/K5020W18.KNP.mps
NAME          BLANK   
ROWS
 N  OBJROW
 L  R0000000
COLUMNS
    C0000000  OBJROW     -184.         R0000000  59.         
    C0000001  OBJROW     -638.         R0000000  940.        
    C0000002  OBJROW     -588.         R0000000  302.        
    C0000003  OBJROW     -520.         R0000000  70.         
    C0000004  OBJROW     -776.         R0000000  62.         
    C0000005  OBJROW     -226.         R0000000  110.        
    C0000006  OBJROW     -49.          R0000000  311.        
    C0000007  OBJROW     -497.         R0000000  957.        
    C0000008  OBJROW     -672.         R0000000  140.        
    C0000009  OBJROW     -416.         R0000000  165.        
    C0000010  OBJROW     -226.         R0000000  404.        
    C0000011  OBJROW     -965.         R0000000  999.        
    C0000012  OBJROW     -534.         R0000000  876.        
    C0000013  OBJROW     -654.         R0000000  669.        
    C0000014  OBJROW     -797.         R0000000  175.        
    C0000015  OBJROW     -690.         R0000000  598.        
    C0000016  OBJROW     -24.          R0000000  744.        
    C0000017  OBJROW     -424.         R0000000  97.         
    C0000018  OBJROW     -496.         R0000000  914.        
    C0000019  OBJROW     -985.         R0000000  263.        
RHS
    RHS       R0000000  14132.      
BOUNDS
 BV BOUND     C0000000  1.          
 BV BOUND     C0000001  1.          
 BV BOUND     C0000002  1.          
 BV BOUND     C0000003  1.          
 BV BOUND     C0000004  1.          
 BV BOUND     C0000005  1.          
 BV BOUND     C0000006  1.          
 BV BOUND     C0000007  1.          
 BV BOUND     C0000008  1.          
 BV BOUND     C0000009  1.          
 BV BOUND     C0000010  1.          
 BV BOUND     C0000011  1.          
 BV BOUND     C0000012  1.          
 BV BOUND     C0000013  1.          
 BV BOUND     C0000014  1.          
 BV BOUND     C0000015  1.          
 BV BOUND     C0000016  1.          
 BV BOUND     C0000017  1.          
 BV BOUND     C0000018  1.          
 BV BOUND     C0000019  1.          
ENDATA
