data/MCDM/NO_CORR/GEN_FROM_60/20_ITEMS_1000_GEN/K5020W18.KNP.txt
N 20
M 21
LC 20
LC 21
LC 22
LC 23
LC 24
LC 25
LC 26
LC 27
LC 28
LC 29
LC 30
LC 31
LC 32
LC 33
LC 34
LC 35
LC 36
LC 37
LC 38
LC 39
LR 1
LR 2
LR 3
LR 4
LR 5
LR 6
LR 7
LR 8
LR 9
LR 10
LR 11
LR 12
LR 13
LR 14
LR 15
LR 16
LR 17
LR 18
LR 19
LR 20
LR 21
LO -184
LO -638
LO -588
LO -520
LO -776
LO -226
LO -49
LO -497
LO -672
LO -416
LO -226
LO -965
LO -534
LO -654
LO -797
LO -690
LO -24
LO -424
LO -496
LO -985
OS 1
IC 344
IC 712
IC 121
IC 904
IC 678
IC 966
IC 280
IC 24
IC 705
IC 225
IC 346
IC 128
IC 403
IC 378
IC 313
IC 947
IC 389
IC 702
IC 580
IC 38
IB 4592
